SYSTEM = PdSnSiO

ISTART = 0        # 0 = new job, 1 = restart
NWRITE = 1         # how much is written out
#ICHARG = 11       # 0 = from initial wave, 1 = from CHGCAR, 2 = superpose atomic charge densities, +10 non-selfcon calc
#INIWAV = 1        #initial electr wf. : 0-lowe 1-rand
LCHARG = .False.  # write restart charge file
LWAVE  = .False.  # write restart wf file
ISPIN  = 2        # spin polarisation 1 = no 2 = yes
NCORE   = 28        # adjust to number of processors;  best on berni up to 24 CPUs
#KPAR   = 3

PREC   = Accurate  # [Low/Medium/High/Accurate/Normal]
ENCUT  = 450      # energy cutoff
NELM   = 200     # max iteracions in SC loop
NELMIN = 3        # min iterations in SC loop
EDIFF  = 1.0E-6 # stopping-criterion for electronic upd.
EDIFFG = -0.03    # convergence criterion for forces

POTIM = 0.3         # ion step size/ time step (fs) for MD
#NFREE = 2



ISMEAR = 0 ; SIGMA = 0.05  #-5 for accurate total energy and DOS 0 for large cell 1 for metal
LREAL = A         # F small molecule; A normal system
#EMIN = -14 ; EMAX = 8    #energy-range for DOSCAR file

#LMAXMIX= 4     #default 2;  DFT+U :4 for d-elements, 6 for f-elements;
LASPH = .True. #default False;  DFT+U:TURE; non-spherical contributions. neccessary for vdw
#NSIM=4   #default:4
#NBANDS =
#LORBIT = 11     #IF >=10 RWIGS not read in INCAR
#RWIGS =         # from POTCAR
#MAGMOM = 40*0 #magnetic
#NUPDOWN=


#for slabs, magnetic systems and insulating systems (e.g. molecules and clusters),
#AMIX = 0.2                                                           # 
#BMIX = 0.0001     # almost zero, but 0 will crash some versions      # 
#AMIX_MAG = 0.8                                                       # 
#BMIX_MAG = 0.0001  # almost zero, but 0 will crash some versions     #
#MAXMIX = 


! PBE;PW91 pure DFT
GGA=PE        #PB: PB; PW: PW86; LM: LMH; 91: PW91; PE: PBE; RP rPBE; AM: AM05; PS: PBEsol
ALGO=Fast     #Normal(Default); VeryFast; Fast; Conjugate; All; Damped; Subrot; Eigenval; None; Nothing; Exact; Diag
#IALGO=38
#VOSKOWN = 0

!!! Hybrid Functionals
### Better preconverge with PBE first
### and use the WAVECAR file as inout for the DFT+HF calculation
#LHFCALC = .TRUE. 
#PRECFOCK  = Fast  # used PRECFOCK = Normal Fast Accurate
#NKRED     = 2     # omit flag for high quality calculations
#ALGO = Damped ; TIME = 0.4  # ALGO = Normal/AL/Damped

!HSE06
#HFSCREEN = 0.2
#AEXX = 0.15        #fraction of exact exchange in a Hartree-Fock/DFT hybrid functional type calculation
#AGGAX=0.75         # 1.-AEXX
#AGGAC=1.0          #fraction of gradient corrections to the correlation in a Hartree-Fock/DFT hybrid functional type calculation
#ALDAC=1.0          #fraction of LDA correlation in a Hartree-Fock/DFT hybrid functional type calculation.

!HSE03
#HFSCREEN = 0.3
#AEXX = 0.25
#AGGAX=0.75
#AGGAC=1.0
#ALDAC=1.0

!PBE0
#AEXX=0.25
#AGGAX=0.75
#AGGAC=1.0
#ALDAC=1.0

!B3LYP
#GGA     = B3 
#AEXX    = 0.2
#AGGAX   = 0.72 
#AGGAC   = 0.81 
#ALDAC   = 0.19

!Hartree-Fock
#AEXX    = 1.0
#ALDAC   = 0.0 
#AGGAC   = 0.0
#AGGAX=0.0     


################NEB parameter##############
###Standard Parameter
#ICHAIN  =  0          #Indicates which method to run.CHAIN=0: Nudged elastic band (default); =1: Dynamical matrix; =2: Dimer; =3: Lanczos
#IMAGES  =  4          #Number of NEB images between the fixed endpoints; default: none
#SPRING  = -5          #The spring constant, in eV/Ang^2 between the images; negative value turns on nudging
#LCLIMB  = .TRUE.      #lag to turn on the climbing image algorithm 
#LTANGENTOLD  =  .FALSE.   #Flag to turn on the old central difference tangent 
#LDNEB   = .FALSE.     #Flag to turn on modified double nudging 

#####FORCE BASED OPTIMIZERS 
                          #1&2 is not recommended, recommend to use 3,or 7.   see:http://theory.cm.utexas.edu/vtsttools/optimizers.html

# GGA+U
#LDAU= T
#LDAUTYPE= 2
#LDAUL= -1  2
#LDAUU= 0  2.2
#LDAUJ= 0  0.2
IVDW = 12 # DFT-D3(BJ)
#VDW_s6 = 1.0 !s6-scaling parameter (should be kept fix at 1.0)
#VDW_s8 = 0.7875 ! s8-scaling factor
#VDW_a1 = 0.4289! scaling for damping function
#VDW_a2 = 4.4407 ! scaling for damping function
IBRION = 22
ISYM = 0
NSW  = 0
ISIF = 3
