NELMIN = 5
NELMDL = -6
SIGMA = 0.1
EDIFF = 1e-5
EDIFFG = -1e-2
ISIF = 3
IBRION = 22
GGA = PE
NSW = 1000000
NPAR = 4
ISMEAR = 0
ISYM = 0
ENCUT = 450
LWAVE = .FALSE.
LCHARG = .FALSE.
#ISPIN = 2
NELM = 100
 
